(set-logic ALL)
(declare-var i (_ BitVec 32))
(declare-var i! (_ BitVec 32))
(declare-var conf_0 (_ BitVec 32))
(declare-var conf_0! (_ BitVec 32))
(declare-var n (_ BitVec 32))
(declare-var n! (_ BitVec 32))
(declare-var x (_ BitVec 32))
(declare-var x! (_ BitVec 32))
(declare-var y (_ BitVec 32))
(declare-var y! (_ BitVec 32))
(declare-var tmp (_ BitVec 32))
(declare-var tmp! (_ BitVec 32))
(declare-var i_0 (_ BitVec 32))
(declare-var i_0! (_ BitVec 32))
(declare-var i_1 (_ BitVec 32))
(declare-var i_1! (_ BitVec 32))
(declare-var i_2 (_ BitVec 32))
(declare-var i_2! (_ BitVec 32))
(declare-var i_3 (_ BitVec 32))
(declare-var i_3! (_ BitVec 32))
(declare-var conf_0_0 (_ BitVec 32))
(declare-var conf_0_0! (_ BitVec 32))
(declare-var conf_0_1 (_ BitVec 32))
(declare-var conf_0_1! (_ BitVec 32))
(declare-var conf_0_2 (_ BitVec 32))
(declare-var conf_0_2! (_ BitVec 32))
(declare-var conf_0_3 (_ BitVec 32))
(declare-var conf_0_3! (_ BitVec 32))
(declare-var conf_0_4 (_ BitVec 32))
(declare-var conf_0_4! (_ BitVec 32))
(declare-var conf_0_5 (_ BitVec 32))
(declare-var conf_0_5! (_ BitVec 32))
(declare-var conf_0_6 (_ BitVec 32))
(declare-var conf_0_6! (_ BitVec 32))
(declare-var conf_0_7 (_ BitVec 32))
(declare-var conf_0_7! (_ BitVec 32))
(declare-var n_0 (_ BitVec 32))
(declare-var n_0! (_ BitVec 32))
(declare-var x_0 (_ BitVec 32))
(declare-var x_0! (_ BitVec 32))
(declare-var x_1 (_ BitVec 32))
(declare-var x_1! (_ BitVec 32))
(declare-var x_2 (_ BitVec 32))
(declare-var x_2! (_ BitVec 32))
(declare-var x_3 (_ BitVec 32))
(declare-var x_3! (_ BitVec 32))
(declare-var x_4 (_ BitVec 32))
(declare-var x_4! (_ BitVec 32))
(declare-var x_5 (_ BitVec 32))
(declare-var x_5! (_ BitVec 32))
(declare-var y_0 (_ BitVec 32))
(declare-var y_0! (_ BitVec 32))
(declare-var y_1 (_ BitVec 32))
(declare-var y_1! (_ BitVec 32))
(declare-var y_2 (_ BitVec 32))
(declare-var y_2! (_ BitVec 32))
(declare-var y_3 (_ BitVec 32))
(declare-var y_3! (_ BitVec 32))
(declare-var y_4 (_ BitVec 32))
(declare-var y_4! (_ BitVec 32))
(declare-var y_5 (_ BitVec 32))
(declare-var y_5! (_ BitVec 32))
(synth-fun inv-f((parameter0 (_ BitVec 32))(parameter1 (_ BitVec 32))(parameter2 (_ BitVec 32))(parameter3 (_ BitVec 32))(parameter4 (_ BitVec 32))(parameter5 (_ BitVec 32))(parameter6 (_ BitVec 32))(parameter7 (_ BitVec 32))(parameter8 (_ BitVec 32))(parameter9 (_ BitVec 32))(parameter10 (_ BitVec 32))(parameter11 (_ BitVec 32))(parameter12 (_ BitVec 32))(parameter13 (_ BitVec 32))(parameter14 (_ BitVec 32))(parameter15 (_ BitVec 32))(parameter16 (_ BitVec 32))(parameter17 (_ BitVec 32))(parameter18 (_ BitVec 32))(parameter19 (_ BitVec 32))(parameter20 (_ BitVec 32))(parameter21 (_ BitVec 32))(parameter22 (_ BitVec 32))(parameter23 (_ BitVec 32))(parameter24 (_ BitVec 32))(parameter25 (_ BitVec 32))(parameter26 (_ BitVec 32))(parameter27 (_ BitVec 32))(parameter28 (_ BitVec 32))(parameter29 (_ BitVec 32))(parameter30 (_ BitVec 32)))Bool) 
(constraint (=> (and (and (and (and (and (and (and (and (and (= i i_1) (= conf_0 conf_0_0) ) (= n n_0) ) (= x x_1) ) (= y y_1) ) (= conf_0_0 (_ bv3 32)) ) (bvuge n_0 (_ bv0 32)) ) (= i_1 (_ bv0 32)) ) (= x_1 (_ bv0 32)) ) (= y_1 (_ bv0 32)) )(inv-f i conf_0 n x y tmp i_0 i_1 i_2 i_3 conf_0_0 conf_0_1 conf_0_2 conf_0_3 conf_0_4 conf_0_5 conf_0_6 conf_0_7 n_0 x_0 x_1 x_2 x_3 x_4 x_5 y_0 y_1 y_2 y_3 y_4 y_5 )))
(constraint (=> (and (inv-f i conf_0 n x y tmp i_0 i_1 i_2 i_3 conf_0_0 conf_0_1 conf_0_2 conf_0_3 conf_0_4 conf_0_5 conf_0_6 conf_0_7 n_0 x_0 x_1 x_2 x_3 x_4 x_5 y_0 y_1 y_2 y_3 y_4 y_5 ) (or (or (and (and (and (and (and (and (and (and (and (and (and (and (and (= i_2 i) (= conf_0_1 conf_0) ) (= x_2 x) ) (= y_2 y) ) (= i_2 i!) ) (= conf_0_1 conf_0!) ) (= x_2 x!) ) (= y_2 y!) ) (= n n_0) ) (= n! n_0) ) (= conf_0 conf_0!) ) (= x x!) ) (= y y!) ) (= tmp tmp!) ) (and (and (and (and (and (and (and (and (and (and (and (and (and (and (and (and (and (and (and (and (= i_2 i) (= conf_0_1 conf_0) ) (= x_2 x) ) (= y_2 y) ) (bvult i_2 n_0) ) (= i_3 (bvadd i_2 (_ bv1 32))) ) (= conf_0_2 (bvsub (_ bv948 32) conf_0_1)) ) (= x_3 (bvadd x_2 (_ bv1 32))) ) (= conf_0_3 (bvsub conf_0_2 conf_0_2)) ) (= y_3 (bvadd y_2 (_ bv2 32))) ) (= conf_0_4 conf_0_3) ) (= conf_0_5 conf_0_4) ) (= x_4 x_3) ) (= y_4 y_3) ) (= i_3 i!) ) (= conf_0_5 conf_0!) ) (= x_4 x!) ) (= y_4 y!) ) (= n n_0) ) (= n! n_0) ) (= tmp tmp!) ) ) (and (and (and (and (and (and (and (and (and (and (and (and (and (and (and (and (and (and (and (and (= i_2 i) (= conf_0_1 conf_0) ) (= x_2 x) ) (= y_2 y) ) (bvult i_2 n_0) ) (= i_3 (bvadd i_2 (_ bv1 32))) ) (= conf_0_2 (bvsub (_ bv948 32) conf_0_1)) ) (= x_5 (bvadd x_2 (_ bv2 32))) ) (= conf_0_6 (_ bv918 32)) ) (= y_5 (bvadd y_2 (_ bv1 32))) ) (= conf_0_7 (bvadd (_ bv607 32) (_ bv185 32))) ) (= conf_0_5 conf_0_7) ) (= x_4 x_5) ) (= y_4 y_5) ) (= i_3 i!) ) (= conf_0_5 conf_0!) ) (= x_4 x!) ) (= y_4 y!) ) (= n n_0) ) (= n! n_0) ) (= tmp tmp!) ) ) )(inv-f i! conf_0! n! x! y! tmp! i_0! i_1! i_2! i_3! conf_0_0! conf_0_1! conf_0_2! conf_0_3! conf_0_4! conf_0_5! conf_0_6! conf_0_7! n_0! x_0! x_1! x_2! x_3! x_4! x_5! y_0! y_1! y_2! y_3! y_4! y_5! )))
(constraint (=> (inv-f i conf_0 n x y tmp i_0 i_1 i_2 i_3 conf_0_0 conf_0_1 conf_0_2 conf_0_3 conf_0_4 conf_0_5 conf_0_6 conf_0_7 n_0 x_0 x_1 x_2 x_3 x_4 x_5 y_0 y_1 y_2 y_3 y_4 y_5 )(or (not (and (and (and (and (= i i_2) (= conf_0 conf_0_1) ) (= n n_0) ) (= x x_2) ) (= y y_2) )) (not (and (not (bvult i_2 n_0)) (not (= (bvmul (_ bv3 32) n_0) (bvadd x_2 y_2))) )) )))
(check-synth)

